num_features = 14;
num_usage_limits = 2;
num_plans = 3;
num_addons = 0;

features = ["advancedPermissions","scrumAndKanbanBoards","backlog","agileReporting","customizableWorkflows","roadmaps","appsAndIntegrations","anonymousAccess","auditLogs","uptimeSLA","storage","communitySupport","localBusinessHoursSupport","24x7Support"];
usage_limits = ["usersLimit","storageLimit"];
plans = ["FREE","STANDARD","PREMIUM"];
addons = [];

plans_prices = [0,7,14];
addons_prices = [];

linked_features = array2d(USAGE_LIMITS, FEATURES, [
    % usersLimit
    0,0,0,0,0,0,0,0,0,0,0,0,0,0,
    % storageLimit
    0,0,0,0,0,0,0,0,0,0,1,0,0,0
]);

plans_features = array2d(PLANS, FEATURES, [
    % FREE
    0,1,1,1,1,1,1,0,0,0,1,1,0,0,
    % STANDARD
    1,1,1,1,1,1,1,1,1,0,1,1,1,0,
    % PREMIUM
    1,1,1,1,1,1,1,1,1,1,1,1,1,1
]);
plans_usage_limits = array2d(PLANS, USAGE_LIMITS, [
    % FREE
    10,2,
    % STANDARD
    20000,250,
    % PREMIUM
    20000,100000000
]);

addons_features = array2d(ADDONS, FEATURES, [
]);
addons_usage_limits = array2d(ADDONS, USAGE_LIMITS, [
]);
addons_usage_limits_extensions = array2d(ADDONS, USAGE_LIMITS, [
]);
addons_available_for = array2d(ADDONS, PLANS, [
]);
addons_depends_on = array2d(ADDONS, ADDONS, [
]);
